0	3	1	2	2	4	7	6	6	4	7	9	6	10	10	10	10	10	9	7	6
0	3	1	0	2	1	4	3	2	5	6	14	14	14	14	14	14	14	14	14	14
0	4	2	2	3	3	5	8	6	8	12	13	13	13	14	15	15	15	15	15	15
0	3	3	1	2	4	4	3	3	4	4	5	7	9	10	10	10	10	8	7	10
0	1	1	0	2	4	3	9	8	14	17	18	18	18	18	18	18	18	18	18	18
0	2	4	2	4	3	3	7	6	14	16	16	16	16	16	16	16	16	16	16	16
